StudentsNr = 10;
InstructorsNr = 23;
DaysNr = 2;
SlotsPerDay = 20;
AvailabilitySlotsLenght = 10;
RoomNr = 2;
ProgrammNr = 2;
DegreeNr = 1;
RolesNr = 2;
CoursesNr = 7;
InstructorsProgramm = [{1, 2}, {1}, {2}, {1}, {1}, {1, 2}, {1}, {2}, {1}, {2}, {1}, {1}, {2}, {1}, {2}, {2}, {1}, {2}, {2}, {1, 2}, {2}, {2}, {1, 2}];
InstructorRolesPerProgramm = [|{2, 5, 6, 9, 11, 23}, {1, 5, 12, 17, 20}|{3, 6, 8, 13, 23}, {1, 3, 13, 15, 20, 21, 22}|];
InstructorsAvailability = [|1, 1, 1, 0, |1, 1, 0, 0, |0, 1, 1, 1, |0, 0, 0, 1, |0, 0, 1, 1, |1, 1, 1, 1, |0, 1, 1, 1, |0, 1, 0, 1, |1, 1, 1, 1, |1, 1, 1, 1, |0, 0, 1, 0, |1, 0, 1, 1, |1, 1, 1, 1, |1, 1, 1, 1, |0, 0, 1, 1, |1, 1, 1, 1, |0, 1, 1, 1, |1, 1, 0, 1, |0, 1, 1, 1, |0, 1, 0, 0, |0, 0, 0, 0, |1, 1, 1, 1, |1, 1, 1, 1|];
StudentsProgramm = [1, 1, 2, 2, 2, 2, 2, 2, 2, 1];
StudentsDegree = [1, 1, 1, 1, 1, 1, 1, 1, 1, 1];
StudentsSupervisorId = [17, 17, 21, 21, 21, 8, 6, 21, 15, 9];
StudentsCourseIds = [{1, 2, 3, 4, 5, 6}, {1, 2, 4, 5, 6, 7}, {2, 3, 4, 5, 6, 7}, {1, 2, 3, 4, 5, 6}, {2, 3, 4, 5, 6, 7}, {1, 2, 3, 5, 6, 7}, {1, 3, 4, 5, 6, 7}, {2, 3, 4, 5, 6, 7}, {2, 3, 4, 5, 6, 7}, {1, 3, 4, 5, 6, 7}];
StudentsAvailability = [|0, 0, 0, 1, |1, 1, 1, 1, |0, 0, 0, 1, |0, 1, 1, 1, |1, 1, 1, 1, |0, 1, 1, 1, |1, 1, 1, 1, |0, 0, 0, 0, |1, 1, 1, 1, |1, 0, 0, 0|];
TheoryticalMinCard = [0, 1, 0, 0, 0, 0, 0, 0, 0, 1];
CoursesInstructorIds = [{3, 5, 6, 7, 10, 13, 14, 15, 16, 17, 21, 23}, {1, 2, 3, 4, 6, 7, 8, 10, 11, 12, 16, 20, 21, 23}, {20}, {3, 5, 7, 8, 9, 11, 12, 15, 16, 19, 20, 21, 22, 23}, {3, 11}, {2, 15, 16, 17, 21, 23}, {4, 15}];
RolesDemands = [2, 3];
RolesContinuity = [];
ExamLen = [2, 2, 2, 2, 2, 2, 2, 2, 2, 2];
LunchTsMinLen = 0;
LunchStarts = [8..11, 26..31];
SupervisorAvailable = 0;
OptimalLunchLenght = [0, 2];
OptimalStartTs = [0, 1];
OptimalFinishTs = [1, 19];
MinimizeRooms = 400;
RolesSoftContinuity = [|1, 2|1, 0|];
SameDegreeInRoom = 10;
Mergeability = 0;
